25
20 47
3 64
9 24
14 10
25 21
19 6
19 65
14 59
17 82
14 95
25 83
2 76
10 53
2 54
26 33
20 27
17 50
27 28
28 97
20 44
8 96
7 70
18 42
11 100
23 59
27 77
7 60
24 78
26 66
29 45
4 24
23 25
26 26
17 38
13 100
3 56
5 41
13 94
29 40
16 33
23 28
23 29
22 83
19 79
10 66
3 15
11 87
29 32
14 79
22 6
11 9
16 55
4 90
25 53
8 66
1 59
10 95
9 54
23 97
16 54
22 93
4 5
21 6
4 23
27 25
8 99
28 88
27 81
30 26
5 20
16 32
2 26
5 75
24 33
1 44
19 12
7 60
8 55
5 77
20 39
10 64
26 5
28 57
8 77
15 81
3 34
6 10
24 69
28 40
26 37
4 61
27 89
14 69
30 44
2 52
7 55
29 77
24 22
24 84
10 52
